
Gurobi 11.0.3 (linux64) logging started Sat Nov 23 12:10:07 2024

Set parameter LogFile to value "/home/yihong/Coding/OR_SUC/SUC_results_bigM100000_thread4/case24_ieee_rts_theta0.1_epsilon0.05_gurobi_seed1040000_num_gen100_N_WDR50_load_scaling_factor1_exact_T24quadra_cost.txt"
Set parameter TimeLimit to value 3600
Gurobi Optimizer version 11.0.3 build v11.0.3rc0 (linux64 - "Ubuntu 20.04.6 LTS")

CPU model: AMD EPYC 7532 32-Core Processor, instruction set [SSE2|AVX|AVX2]
Thread count: 64 physical cores, 128 logical processors, using up to 4 threads

Optimize a model with 51943 rows, 29861 columns and 712638 nonzeros
Model fingerprint: 0x411b5a8a
Model has 2400 quadratic constraints
Variable types: 27411 continuous, 2450 integer (2450 binary)
Coefficient statistics:
  Matrix range     [3e-04, 1e+05]
  QMatrix range    [2e-03, 8e-03]
  QLMatrix range   [2e-01, 6e+01]
  Objective range  [1e+00, 1e+00]
  Bounds range     [1e+00, 1e+00]
  RHS range        [1e+00, 1e+05]
Presolve removed 42070 rows and 12913 columns
Presolve time: 0.25s
Presolved: 9873 rows, 16948 columns, 61790 nonzeros
Presolved model has 2400 quadratic constraint(s)
Variable types: 14505 continuous, 2443 integer (2443 binary)

Root relaxation: objective 2.773225e+04, 7383 iterations, 0.18 seconds (0.26 work units)

    Nodes    |    Current Node    |     Objective Bounds      |     Work
 Expl Unexpl |  Obj  Depth IntInf | Incumbent    BestBd   Gap | It/Node Time

     0     0 27732.2490    0   28          - 27732.2490      -     -    0s
     0     0 323242.350    0  708          - 323242.350      -     -    1s
     0     0 359763.281    0  677          - 359763.281      -     -    1s
     0     0 605895.856    0  647          - 605895.856      -     -    1s
     0     0 606786.343    0  503          - 606786.343      -     -    1s
     0     0 607388.491    0  399          - 607388.491      -     -    1s
     0     0 607580.707    0  398          - 607580.707      -     -    1s
     0     0 607871.052    0  397          - 607871.052      -     -    1s
     0     0 607959.708    0  397          - 607959.708      -     -    1s
     0     0 607960.364    0  397          - 607960.364      -     -    1s
     0     2 607960.364    0  397          - 607960.364      -     -    2s
H  548   271                    608353.13223 608036.899  0.05%  28.6    4s
*  548   271             180    608353.13223 608036.899  0.05%  28.6    4s

Cutting planes:
  Gomory: 4
  Implied bound: 406
  MIR: 138
  Flow cover: 118
  RLT: 22

Explored 610 nodes (38074 simplex iterations) in 5.30 seconds (6.64 work units)
Thread count was 4 (of 128 available processors)

Solution count 2: 608353 608353 

Optimal solution found (tolerance 1.00e-03)
Warning: max constraint violation (1.0155e-06) exceeds tolerance
Best objective 6.083531322343e+05, best bound 6.080368985179e+05, gap 0.0520%
